(set-info :smt-lib-version 2.6)
(set-logic QF_NIA)
(set-info :source |
Generated by: Cristina Borralleras, Daniel Larraz, Albert Oliveras, Enric Rodriguez-Carbonell, Albert Rubio
Generated on: 2017-04-27
Generator: VeryMax
Application: Termination proving
Target solver: barcelogic
|)
(set-info :license "https://creativecommons.org/licenses/by/4.0/")
(set-info :category "industrial")
(set-info :status unknown)
(declare-fun Nl3arg11 () Int)
(declare-fun Nl3arg21 () Int)
(declare-fun Nl3arg12 () Int)
(declare-fun Nl3arg22 () Int)
(declare-fun lam0n0 () Int)
(declare-fun lam0n1 () Int)
(declare-fun lam0n2 () Int)
(declare-fun lam0n3 () Int)
(declare-fun lam0n5 () Int)
(declare-fun lam0n6 () Int)
(declare-fun Nl3CT1 () Int)
(declare-fun Nl3CT2 () Int)
(declare-fun lam0n4 () Int)
(declare-fun lam1n0 () Int)
(declare-fun lam1n1 () Int)
(declare-fun lam1n2 () Int)
(declare-fun lam1n3 () Int)
(declare-fun lam1n5 () Int)
(declare-fun lam1n6 () Int)
(declare-fun lam1n4 () Int)
(declare-fun lam2n0 () Int)
(declare-fun lam2n1 () Int)
(declare-fun lam2n2 () Int)
(declare-fun lam2n3 () Int)
(declare-fun lam2n5 () Int)
(declare-fun lam2n6 () Int)
(declare-fun lam2n4 () Int)
(declare-fun lam3n0 () Int)
(declare-fun lam3n1 () Int)
(declare-fun lam3n2 () Int)
(declare-fun lam3n3 () Int)
(declare-fun lam3n5 () Int)
(declare-fun lam3n6 () Int)
(declare-fun lam3n4 () Int)
(declare-fun lam4n0 () Int)
(declare-fun lam4n1 () Int)
(declare-fun lam4n2 () Int)
(declare-fun lam4n3 () Int)
(declare-fun lam4n5 () Int)
(declare-fun lam4n6 () Int)
(declare-fun lam4n4 () Int)
(declare-fun lam5n0 () Int)
(declare-fun lam5n1 () Int)
(declare-fun lam5n2 () Int)
(declare-fun lam5n3 () Int)
(declare-fun lam5n5 () Int)
(declare-fun lam5n6 () Int)
(declare-fun lam5n4 () Int)
(declare-fun lam6n0 () Int)
(declare-fun lam6n1 () Int)
(declare-fun lam6n2 () Int)
(declare-fun lam6n3 () Int)
(declare-fun lam6n5 () Int)
(declare-fun lam6n6 () Int)
(declare-fun lam6n4 () Int)
(declare-fun lam7n0 () Int)
(declare-fun lam7n1 () Int)
(declare-fun lam7n2 () Int)
(declare-fun lam7n3 () Int)
(declare-fun lam7n5 () Int)
(declare-fun lam7n6 () Int)
(declare-fun lam7n4 () Int)
(declare-fun lam8n0 () Int)
(declare-fun lam8n1 () Int)
(declare-fun lam8n2 () Int)
(declare-fun lam8n3 () Int)
(declare-fun lam8n5 () Int)
(declare-fun lam8n6 () Int)
(declare-fun lam8n4 () Int)
(declare-fun lam9n0 () Int)
(declare-fun lam9n1 () Int)
(declare-fun lam9n2 () Int)
(declare-fun lam9n3 () Int)
(declare-fun lam9n4 () Int)
(declare-fun lam9n5 () Int)
(declare-fun lam9n6 () Int)
(declare-fun lam9n7 () Int)
(declare-fun lam9n8 () Int)
(declare-fun lam10n0 () Int)
(declare-fun lam10n1 () Int)
(declare-fun lam10n2 () Int)
(declare-fun lam10n3 () Int)
(declare-fun lam10n4 () Int)
(declare-fun lam10n5 () Int)
(declare-fun lam10n6 () Int)
(declare-fun lam10n7 () Int)
(declare-fun lam10n8 () Int)
(declare-fun lam11n0 () Int)
(declare-fun lam11n1 () Int)
(declare-fun lam11n2 () Int)
(declare-fun lam11n3 () Int)
(declare-fun lam11n4 () Int)
(declare-fun lam11n5 () Int)
(declare-fun lam11n6 () Int)
(declare-fun lam11n7 () Int)
(declare-fun lam11n8 () Int)
(declare-fun lam11n9 () Int)
(declare-fun lam12n0 () Int)
(declare-fun lam12n1 () Int)
(declare-fun lam12n2 () Int)
(declare-fun lam12n3 () Int)
(declare-fun lam12n4 () Int)
(declare-fun lam12n5 () Int)
(declare-fun lam12n6 () Int)
(declare-fun lam12n7 () Int)
(declare-fun lam12n8 () Int)
(declare-fun lam12n9 () Int)
(declare-fun undef1 () Int)
(declare-fun undef9 () Int)
(declare-fun undef20 () Int)
(declare-fun undef21 () Int)
(declare-fun undef2 () Int)
(declare-fun undef8 () Int)
(declare-fun undef3 () Int)
(declare-fun undef4 () Int)
(declare-fun undef5 () Int)
(declare-fun undef6 () Int)
(declare-fun lam16n0 () Int)
(declare-fun lam16n1 () Int)
(declare-fun lam16n2 () Int)
(declare-fun lam16n3 () Int)
(declare-fun lam16n5 () Int)
(declare-fun lam16n6 () Int)
(declare-fun RFN1_CT () Int)
(declare-fun RFN1_arg1 () Int)
(declare-fun RFN1_arg2 () Int)
(declare-fun lam16n4 () Int)
(declare-fun lam20n0 () Int)
(declare-fun lam20n1 () Int)
(declare-fun lam20n2 () Int)
(declare-fun lam20n3 () Int)
(declare-fun lam20n5 () Int)
(declare-fun lam20n6 () Int)
(declare-fun lam20n4 () Int)
(declare-fun lam24n0 () Int)
(declare-fun lam24n1 () Int)
(declare-fun lam24n2 () Int)
(declare-fun lam24n3 () Int)
(declare-fun lam24n5 () Int)
(declare-fun lam24n6 () Int)
(declare-fun lam24n4 () Int)
(declare-fun lam14n0 () Int)
(declare-fun lam14n1 () Int)
(declare-fun lam14n2 () Int)
(declare-fun lam14n3 () Int)
(declare-fun lam14n5 () Int)
(declare-fun lam14n6 () Int)
(declare-fun lam14n4 () Int)
(declare-fun lam15n0 () Int)
(declare-fun lam15n1 () Int)
(declare-fun lam15n2 () Int)
(declare-fun lam15n3 () Int)
(declare-fun lam15n5 () Int)
(declare-fun lam15n6 () Int)
(declare-fun lam15n4 () Int)
(declare-fun lam18n0 () Int)
(declare-fun lam18n1 () Int)
(declare-fun lam18n2 () Int)
(declare-fun lam18n3 () Int)
(declare-fun lam18n5 () Int)
(declare-fun lam18n6 () Int)
(declare-fun lam18n4 () Int)
(declare-fun lam19n0 () Int)
(declare-fun lam19n1 () Int)
(declare-fun lam19n2 () Int)
(declare-fun lam19n3 () Int)
(declare-fun lam19n5 () Int)
(declare-fun lam19n6 () Int)
(declare-fun lam19n4 () Int)
(declare-fun lam22n0 () Int)
(declare-fun lam22n1 () Int)
(declare-fun lam22n2 () Int)
(declare-fun lam22n3 () Int)
(declare-fun lam22n5 () Int)
(declare-fun lam22n6 () Int)
(declare-fun lam22n4 () Int)
(declare-fun lam23n0 () Int)
(declare-fun lam23n1 () Int)
(declare-fun lam23n2 () Int)
(declare-fun lam23n3 () Int)
(declare-fun lam23n5 () Int)
(declare-fun lam23n6 () Int)
(declare-fun lam23n4 () Int)
(declare-fun lam13n0 () Int)
(declare-fun lam13n1 () Int)
(declare-fun lam13n2 () Int)
(declare-fun lam13n3 () Int)
(declare-fun lam13n5 () Int)
(declare-fun lam13n6 () Int)
(declare-fun lam13n4 () Int)
(declare-fun lam17n0 () Int)
(declare-fun lam17n1 () Int)
(declare-fun lam17n2 () Int)
(declare-fun lam17n3 () Int)
(declare-fun lam17n5 () Int)
(declare-fun lam17n6 () Int)
(declare-fun lam17n4 () Int)
(declare-fun lam21n0 () Int)
(declare-fun lam21n1 () Int)
(declare-fun lam21n2 () Int)
(declare-fun lam21n3 () Int)
(declare-fun lam21n5 () Int)
(declare-fun lam21n6 () Int)
(declare-fun lam21n4 () Int)
(assert ( and ( <= ( - 2 ) Nl3arg11 ) ( <= Nl3arg11 2 ) ( <= ( - 2 ) Nl3arg21 ) ( <= Nl3arg21 2 ) ( <= ( - 2 ) Nl3arg12 ) ( <= Nl3arg12 2 ) ( <= ( - 2 ) Nl3arg22 ) ( <= Nl3arg22 2 ) ))
(assert ( or ( and ( >= lam0n0 0 ) ( >= lam0n1 0 ) ( >= lam0n2 0 ) ( >= lam0n3 0 ) ( >= lam0n5 0 ) ( >= lam0n6 0 ) ( > ( + ( * 1 lam0n0 ) ( * 1 lam0n1 ) ( * 2 lam0n3 ) ( * Nl3CT1 lam0n5 ) ( * Nl3CT2 lam0n6 ) ( - 1 ) ) 0 ) ( = ( + ( * ( - 1 ) lam0n3 ) ( * 1 lam0n4 ) ( * Nl3arg11 lam0n5 ) ( * Nl3arg12 lam0n6 ) ) 0 ) ( = ( + ( * ( - 1 ) lam0n0 ) ( * ( - 1 ) lam0n1 ) ( * ( - 1 ) lam0n3 ) ( * Nl3arg21 lam0n5 ) ( * Nl3arg22 lam0n6 ) ) 0 ) ( = ( + ( * 1 lam0n1 ) ( * ( - 1 ) lam0n2 ) ) 0 ) ) ( and ( >= lam1n0 0 ) ( >= lam1n1 0 ) ( >= lam1n2 0 ) ( >= lam1n3 0 ) ( >= lam1n5 0 ) ( >= lam1n6 0 ) ( > ( + ( * 1 lam1n0 ) ( * 1 lam1n1 ) ( * 2 lam1n3 ) ( * Nl3CT1 lam1n5 ) ( * Nl3CT2 lam1n6 ) ( - 1 ( + ( + Nl3CT1 ( * Nl3arg11 1 ) ) ( * Nl3arg21 0 ) ) ) ) 0 ) ( = ( + ( * ( - 1 ) lam1n3 ) ( * 1 lam1n4 ) ( * Nl3arg11 lam1n5 ) ( * Nl3arg12 lam1n6 ) ) 0 ) ( = ( + ( * ( - 1 ) lam1n0 ) ( * ( - 1 ) lam1n1 ) ( * ( - 1 ) lam1n3 ) ( * Nl3arg21 lam1n5 ) ( * Nl3arg22 lam1n6 ) ) 0 ) ( = ( + ( * 1 lam1n1 ) ( * ( - 1 ) lam1n2 ) ( - ( + 0 ( * Nl3arg21 1 ) ) ) ) 0 ) ) ))
(assert ( or ( and ( >= lam0n0 0 ) ( >= lam0n1 0 ) ( >= lam0n2 0 ) ( >= lam0n3 0 ) ( >= lam0n5 0 ) ( >= lam0n6 0 ) ( > ( + ( * 1 lam0n0 ) ( * 1 lam0n1 ) ( * 2 lam0n3 ) ( * Nl3CT1 lam0n5 ) ( * Nl3CT2 lam0n6 ) ( - 1 ) ) 0 ) ( = ( + ( * ( - 1 ) lam0n3 ) ( * 1 lam0n4 ) ( * Nl3arg11 lam0n5 ) ( * Nl3arg12 lam0n6 ) ) 0 ) ( = ( + ( * ( - 1 ) lam0n0 ) ( * ( - 1 ) lam0n1 ) ( * ( - 1 ) lam0n3 ) ( * Nl3arg21 lam0n5 ) ( * Nl3arg22 lam0n6 ) ) 0 ) ( = ( + ( * 1 lam0n1 ) ( * ( - 1 ) lam0n2 ) ) 0 ) ) ( and ( >= lam2n0 0 ) ( >= lam2n1 0 ) ( >= lam2n2 0 ) ( >= lam2n3 0 ) ( >= lam2n5 0 ) ( >= lam2n6 0 ) ( > ( + ( * 1 lam2n0 ) ( * 1 lam2n1 ) ( * 2 lam2n3 ) ( * Nl3CT1 lam2n5 ) ( * Nl3CT2 lam2n6 ) ( - 1 ( + ( + Nl3CT2 ( * Nl3arg12 1 ) ) ( * Nl3arg22 0 ) ) ) ) 0 ) ( = ( + ( * ( - 1 ) lam2n3 ) ( * 1 lam2n4 ) ( * Nl3arg11 lam2n5 ) ( * Nl3arg12 lam2n6 ) ) 0 ) ( = ( + ( * ( - 1 ) lam2n0 ) ( * ( - 1 ) lam2n1 ) ( * ( - 1 ) lam2n3 ) ( * Nl3arg21 lam2n5 ) ( * Nl3arg22 lam2n6 ) ) 0 ) ( = ( + ( * 1 lam2n1 ) ( * ( - 1 ) lam2n2 ) ( - ( + 0 ( * Nl3arg22 1 ) ) ) ) 0 ) ) ))
(assert ( or ( and ( >= lam3n0 0 ) ( >= lam3n1 0 ) ( >= lam3n2 0 ) ( >= lam3n3 0 ) ( >= lam3n5 0 ) ( >= lam3n6 0 ) ( > ( + ( * 1 lam3n0 ) ( * 1 lam3n1 ) ( * 2 lam3n3 ) ( * ( - 2 ) lam3n4 ) ( * Nl3CT1 lam3n5 ) ( * Nl3CT2 lam3n6 ) ( - 1 ) ) 0 ) ( = ( + ( * ( - 1 ) lam3n3 ) ( * 1 lam3n4 ) ( * Nl3arg11 lam3n5 ) ( * Nl3arg12 lam3n6 ) ) 0 ) ( = ( + ( * ( - 1 ) lam3n0 ) ( * ( - 1 ) lam3n1 ) ( * ( - 1 ) lam3n3 ) ( * Nl3arg21 lam3n5 ) ( * Nl3arg22 lam3n6 ) ) 0 ) ( = ( + ( * 1 lam3n1 ) ( * ( - 1 ) lam3n2 ) ) 0 ) ) ( and ( >= lam4n0 0 ) ( >= lam4n1 0 ) ( >= lam4n2 0 ) ( >= lam4n3 0 ) ( >= lam4n5 0 ) ( >= lam4n6 0 ) ( > ( + ( * 1 lam4n0 ) ( * 1 lam4n1 ) ( * 2 lam4n3 ) ( * ( - 2 ) lam4n4 ) ( * Nl3CT1 lam4n5 ) ( * Nl3CT2 lam4n6 ) ( - 1 ( + ( + Nl3CT1 ( * Nl3arg11 0 ) ) ( * Nl3arg21 0 ) ) ) ) 0 ) ( = ( + ( * ( - 1 ) lam4n3 ) ( * 1 lam4n4 ) ( * Nl3arg11 lam4n5 ) ( * Nl3arg12 lam4n6 ) ) 0 ) ( = ( + ( * ( - 1 ) lam4n0 ) ( * ( - 1 ) lam4n1 ) ( * ( - 1 ) lam4n3 ) ( * Nl3arg21 lam4n5 ) ( * Nl3arg22 lam4n6 ) ) 0 ) ( = ( + ( * 1 lam4n1 ) ( * ( - 1 ) lam4n2 ) ( - ( + 0 ( * Nl3arg21 1 ) ) ) ) 0 ) ) ))
(assert ( or ( and ( >= lam3n0 0 ) ( >= lam3n1 0 ) ( >= lam3n2 0 ) ( >= lam3n3 0 ) ( >= lam3n5 0 ) ( >= lam3n6 0 ) ( > ( + ( * 1 lam3n0 ) ( * 1 lam3n1 ) ( * 2 lam3n3 ) ( * ( - 2 ) lam3n4 ) ( * Nl3CT1 lam3n5 ) ( * Nl3CT2 lam3n6 ) ( - 1 ) ) 0 ) ( = ( + ( * ( - 1 ) lam3n3 ) ( * 1 lam3n4 ) ( * Nl3arg11 lam3n5 ) ( * Nl3arg12 lam3n6 ) ) 0 ) ( = ( + ( * ( - 1 ) lam3n0 ) ( * ( - 1 ) lam3n1 ) ( * ( - 1 ) lam3n3 ) ( * Nl3arg21 lam3n5 ) ( * Nl3arg22 lam3n6 ) ) 0 ) ( = ( + ( * 1 lam3n1 ) ( * ( - 1 ) lam3n2 ) ) 0 ) ) ( and ( >= lam5n0 0 ) ( >= lam5n1 0 ) ( >= lam5n2 0 ) ( >= lam5n3 0 ) ( >= lam5n5 0 ) ( >= lam5n6 0 ) ( > ( + ( * 1 lam5n0 ) ( * 1 lam5n1 ) ( * 2 lam5n3 ) ( * ( - 2 ) lam5n4 ) ( * Nl3CT1 lam5n5 ) ( * Nl3CT2 lam5n6 ) ( - 1 ( + ( + Nl3CT2 ( * Nl3arg12 0 ) ) ( * Nl3arg22 0 ) ) ) ) 0 ) ( = ( + ( * ( - 1 ) lam5n3 ) ( * 1 lam5n4 ) ( * Nl3arg11 lam5n5 ) ( * Nl3arg12 lam5n6 ) ) 0 ) ( = ( + ( * ( - 1 ) lam5n0 ) ( * ( - 1 ) lam5n1 ) ( * ( - 1 ) lam5n3 ) ( * Nl3arg21 lam5n5 ) ( * Nl3arg22 lam5n6 ) ) 0 ) ( = ( + ( * 1 lam5n1 ) ( * ( - 1 ) lam5n2 ) ( - ( + 0 ( * Nl3arg22 1 ) ) ) ) 0 ) ) ))
(assert ( or ( and ( >= lam6n0 0 ) ( >= lam6n1 0 ) ( >= lam6n2 0 ) ( >= lam6n3 0 ) ( >= lam6n5 0 ) ( >= lam6n6 0 ) ( > ( + ( * 1 lam6n0 ) ( * 2 lam6n1 ) ( * ( - 2 ) lam6n2 ) ( * 3 lam6n3 ) ( * ( - 1 ) lam6n4 ) ( * Nl3CT1 lam6n5 ) ( * Nl3CT2 lam6n6 ) ( - 1 ) ) 0 ) ( = ( + ( * ( - 1 ) lam6n1 ) ( * 1 lam6n4 ) ( * Nl3arg11 lam6n5 ) ( * Nl3arg12 lam6n6 ) ) 0 ) ( = ( + ( * ( - 1 ) lam6n0 ) ( * ( - 1 ) lam6n1 ) ( * ( - 1 ) lam6n2 ) ( * Nl3arg21 lam6n5 ) ( * Nl3arg22 lam6n6 ) ) 0 ) ( = ( + ( * 1 lam6n2 ) ( * ( - 1 ) lam6n3 ) ) 0 ) ) ( and ( >= lam7n0 0 ) ( >= lam7n1 0 ) ( >= lam7n2 0 ) ( >= lam7n3 0 ) ( >= lam7n5 0 ) ( >= lam7n6 0 ) ( > ( + ( * 1 lam7n0 ) ( * 2 lam7n1 ) ( * ( - 2 ) lam7n2 ) ( * 3 lam7n3 ) ( * ( - 1 ) lam7n4 ) ( * Nl3CT1 lam7n5 ) ( * Nl3CT2 lam7n6 ) ( - 1 ( + ( + Nl3CT1 ( * Nl3arg11 2 ) ) ( * Nl3arg21 0 ) ) ) ) 0 ) ( = ( + ( * ( - 1 ) lam7n1 ) ( * 1 lam7n4 ) ( * Nl3arg11 lam7n5 ) ( * Nl3arg12 lam7n6 ) ) 0 ) ( = ( + ( * ( - 1 ) lam7n0 ) ( * ( - 1 ) lam7n1 ) ( * ( - 1 ) lam7n2 ) ( * Nl3arg21 lam7n5 ) ( * Nl3arg22 lam7n6 ) ) 0 ) ( = ( + ( * 1 lam7n2 ) ( * ( - 1 ) lam7n3 ) ( - ( + 0 ( * Nl3arg21 1 ) ) ) ) 0 ) ) ))
(assert ( or ( and ( >= lam6n0 0 ) ( >= lam6n1 0 ) ( >= lam6n2 0 ) ( >= lam6n3 0 ) ( >= lam6n5 0 ) ( >= lam6n6 0 ) ( > ( + ( * 1 lam6n0 ) ( * 2 lam6n1 ) ( * ( - 2 ) lam6n2 ) ( * 3 lam6n3 ) ( * ( - 1 ) lam6n4 ) ( * Nl3CT1 lam6n5 ) ( * Nl3CT2 lam6n6 ) ( - 1 ) ) 0 ) ( = ( + ( * ( - 1 ) lam6n1 ) ( * 1 lam6n4 ) ( * Nl3arg11 lam6n5 ) ( * Nl3arg12 lam6n6 ) ) 0 ) ( = ( + ( * ( - 1 ) lam6n0 ) ( * ( - 1 ) lam6n1 ) ( * ( - 1 ) lam6n2 ) ( * Nl3arg21 lam6n5 ) ( * Nl3arg22 lam6n6 ) ) 0 ) ( = ( + ( * 1 lam6n2 ) ( * ( - 1 ) lam6n3 ) ) 0 ) ) ( and ( >= lam8n0 0 ) ( >= lam8n1 0 ) ( >= lam8n2 0 ) ( >= lam8n3 0 ) ( >= lam8n5 0 ) ( >= lam8n6 0 ) ( > ( + ( * 1 lam8n0 ) ( * 2 lam8n1 ) ( * ( - 2 ) lam8n2 ) ( * 3 lam8n3 ) ( * ( - 1 ) lam8n4 ) ( * Nl3CT1 lam8n5 ) ( * Nl3CT2 lam8n6 ) ( - 1 ( + ( + Nl3CT2 ( * Nl3arg12 2 ) ) ( * Nl3arg22 0 ) ) ) ) 0 ) ( = ( + ( * ( - 1 ) lam8n1 ) ( * 1 lam8n4 ) ( * Nl3arg11 lam8n5 ) ( * Nl3arg12 lam8n6 ) ) 0 ) ( = ( + ( * ( - 1 ) lam8n0 ) ( * ( - 1 ) lam8n1 ) ( * ( - 1 ) lam8n2 ) ( * Nl3arg21 lam8n5 ) ( * Nl3arg22 lam8n6 ) ) 0 ) ( = ( + ( * 1 lam8n2 ) ( * ( - 1 ) lam8n3 ) ( - ( + 0 ( * Nl3arg22 1 ) ) ) ) 0 ) ) ))
(assert ( or ( and ( <= ( + 1 ( * ( - 1 ) undef1 ) ) 0 ) ( <= ( + 1 ( * ( - 1 ) undef9 ) ) 0 ) ( <= ( + 1 ( * ( - 1 ) undef20 ) ) 0 ) ( <= ( + 1 ( * ( - 1 ) undef21 ) ) 0 ) ( <= ( + undef1 ( * ( - 1 ) undef20 ) ) 0 ) ( <= ( + ( * ( - 1 ) undef2 ) undef8 ) 0 ) ( <= ( * ( - 1 ) undef3 ) 0 ) ( not ( <= ( + ( - 1 ) undef8 ) 0 ) ) ( <= ( + 3 ( * ( - 1 ) undef2 ) ) 0 ) ( <= ( + ( + ( + Nl3CT1 ( * Nl3arg11 0 ) ) ( * Nl3arg21 0 ) ) ( * ( + 0 ( * Nl3arg21 1 ) ) undef8 ) ) 0 ) ( <= ( + ( + ( + Nl3CT2 ( * Nl3arg12 0 ) ) ( * Nl3arg22 0 ) ) ( * ( + 0 ( * Nl3arg22 1 ) ) undef8 ) ) 0 ) ) ( and ( <= ( + 1 ( * ( - 1 ) undef4 ) ) 0 ) ( <= ( + 1 ( * ( - 1 ) undef9 ) ) 0 ) ( <= ( + 1 ( * ( - 1 ) undef20 ) ) 0 ) ( <= ( + 1 ( * ( - 1 ) undef21 ) ) 0 ) ( <= ( + ( - 1 ) undef5 ( * ( - 1 ) undef20 ) ) 0 ) ( <= ( + undef4 ( * ( - 1 ) undef20 ) ) 0 ) ( <= ( + ( * ( - 1 ) undef5 ) undef8 ) 0 ) ( <= ( * ( - 1 ) undef6 ) 0 ) ( <= ( + 2 ( * ( - 1 ) undef5 ) ) 0 ) ( not ( <= ( + ( - 1 ) undef8 ) 0 ) ) ( <= ( + ( + ( + Nl3CT1 ( * Nl3arg11 0 ) ) ( * Nl3arg21 0 ) ) ( * ( + 0 ( * Nl3arg21 1 ) ) undef8 ) ) 0 ) ( <= ( + ( + ( + Nl3CT2 ( * Nl3arg12 0 ) ) ( * Nl3arg22 0 ) ) ( * ( + 0 ( * Nl3arg22 1 ) ) undef8 ) ) 0 ) ) ))
(assert ( or ( and ( and ( and ( >= lam16n0 0 ) ( >= lam16n1 0 ) ( >= lam16n2 0 ) ( >= lam16n3 0 ) ( >= lam16n5 0 ) ( >= lam16n6 0 ) ( > ( + ( * 1 lam16n0 ) ( * 1 lam16n1 ) ( * 2 lam16n3 ) ( * Nl3CT1 lam16n5 ) ( * Nl3CT2 lam16n6 ) ( - 1 ( - ( + ( + RFN1_CT ( * RFN1_arg1 1 ) ) ( * RFN1_arg2 0 ) ) RFN1_CT ) ) ) 0 ) ( = ( + ( * ( - 1 ) lam16n3 ) ( * 1 lam16n4 ) ( * Nl3arg11 lam16n5 ) ( * Nl3arg12 lam16n6 ) ( - ( - RFN1_arg1 ) ) ) 0 ) ( = ( + ( * ( - 1 ) lam16n0 ) ( * ( - 1 ) lam16n1 ) ( * ( - 1 ) lam16n3 ) ( * Nl3arg21 lam16n5 ) ( * Nl3arg22 lam16n6 ) ( - ( - RFN1_arg2 ) ) ) 0 ) ( = ( + ( * 1 lam16n1 ) ( * ( - 1 ) lam16n2 ) ( - ( + 0 ( * RFN1_arg2 1 ) ) ) ) 0 ) ) ( and ( >= lam20n0 0 ) ( >= lam20n1 0 ) ( >= lam20n2 0 ) ( >= lam20n3 0 ) ( >= lam20n5 0 ) ( >= lam20n6 0 ) ( > ( + ( * 1 lam20n0 ) ( * 1 lam20n1 ) ( * 2 lam20n3 ) ( * ( - 2 ) lam20n4 ) ( * Nl3CT1 lam20n5 ) ( * Nl3CT2 lam20n6 ) ( - 1 ( - ( + ( + RFN1_CT ( * RFN1_arg1 0 ) ) ( * RFN1_arg2 0 ) ) RFN1_CT ) ) ) 0 ) ( = ( + ( * ( - 1 ) lam20n3 ) ( * 1 lam20n4 ) ( * Nl3arg11 lam20n5 ) ( * Nl3arg12 lam20n6 ) ( - ( - RFN1_arg1 ) ) ) 0 ) ( = ( + ( * ( - 1 ) lam20n0 ) ( * ( - 1 ) lam20n1 ) ( * ( - 1 ) lam20n3 ) ( * Nl3arg21 lam20n5 ) ( * Nl3arg22 lam20n6 ) ( - ( - RFN1_arg2 ) ) ) 0 ) ( = ( + ( * 1 lam20n1 ) ( * ( - 1 ) lam20n2 ) ( - ( + 0 ( * RFN1_arg2 1 ) ) ) ) 0 ) ) ( and ( >= lam24n0 0 ) ( >= lam24n1 0 ) ( >= lam24n2 0 ) ( >= lam24n3 0 ) ( >= lam24n5 0 ) ( >= lam24n6 0 ) ( > ( + ( * 1 lam24n0 ) ( * 2 lam24n1 ) ( * ( - 2 ) lam24n2 ) ( * 3 lam24n3 ) ( * ( - 1 ) lam24n4 ) ( * Nl3CT1 lam24n5 ) ( * Nl3CT2 lam24n6 ) ( - 1 ( - ( + ( + RFN1_CT ( * RFN1_arg1 2 ) ) ( * RFN1_arg2 0 ) ) RFN1_CT ) ) ) 0 ) ( = ( + ( * ( - 1 ) lam24n1 ) ( * 1 lam24n4 ) ( * Nl3arg11 lam24n5 ) ( * Nl3arg12 lam24n6 ) ( - ( - RFN1_arg1 ) ) ) 0 ) ( = ( + ( * ( - 1 ) lam24n0 ) ( * ( - 1 ) lam24n1 ) ( * ( - 1 ) lam24n2 ) ( * Nl3arg21 lam24n5 ) ( * Nl3arg22 lam24n6 ) ( - ( - RFN1_arg2 ) ) ) 0 ) ( = ( + ( * 1 lam24n2 ) ( * ( - 1 ) lam24n3 ) ( - ( + 0 ( * RFN1_arg2 1 ) ) ) ) 0 ) ) ) ( or ( and ( and ( >= lam14n0 0 ) ( >= lam14n1 0 ) ( >= lam14n2 0 ) ( >= lam14n3 0 ) ( >= lam14n5 0 ) ( >= lam14n6 0 ) ( > ( + ( * 1 lam14n0 ) ( * 1 lam14n1 ) ( * 2 lam14n3 ) ( * Nl3CT1 lam14n5 ) ( * Nl3CT2 lam14n6 ) ( - 1 ( - RFN1_CT ) ) ) 0 ) ( = ( + ( * ( - 1 ) lam14n3 ) ( * 1 lam14n4 ) ( * Nl3arg11 lam14n5 ) ( * Nl3arg12 lam14n6 ) ( - ( - RFN1_arg1 ) ) ) 0 ) ( = ( + ( * ( - 1 ) lam14n0 ) ( * ( - 1 ) lam14n1 ) ( * ( - 1 ) lam14n3 ) ( * Nl3arg21 lam14n5 ) ( * Nl3arg22 lam14n6 ) ( - ( - RFN1_arg2 ) ) ) 0 ) ( = ( + ( * 1 lam14n1 ) ( * ( - 1 ) lam14n2 ) ) 0 ) ) ( and ( >= lam15n0 0 ) ( >= lam15n1 0 ) ( >= lam15n2 0 ) ( >= lam15n3 0 ) ( >= lam15n5 0 ) ( >= lam15n6 0 ) ( > ( + ( * 1 lam15n0 ) ( * 1 lam15n1 ) ( * 2 lam15n3 ) ( * Nl3CT1 lam15n5 ) ( * Nl3CT2 lam15n6 ) ( - 1 ( + ( - ( + ( + RFN1_CT ( * RFN1_arg1 1 ) ) ( * RFN1_arg2 0 ) ) RFN1_CT ) 1 ) ) ) 0 ) ( = ( + ( * ( - 1 ) lam15n3 ) ( * 1 lam15n4 ) ( * Nl3arg11 lam15n5 ) ( * Nl3arg12 lam15n6 ) ( - ( - RFN1_arg1 ) ) ) 0 ) ( = ( + ( * ( - 1 ) lam15n0 ) ( * ( - 1 ) lam15n1 ) ( * ( - 1 ) lam15n3 ) ( * Nl3arg21 lam15n5 ) ( * Nl3arg22 lam15n6 ) ( - ( - RFN1_arg2 ) ) ) 0 ) ( = ( + ( * 1 lam15n1 ) ( * ( - 1 ) lam15n2 ) ( - ( + 0 ( * RFN1_arg2 1 ) ) ) ) 0 ) ) ) ( and ( and ( >= lam18n0 0 ) ( >= lam18n1 0 ) ( >= lam18n2 0 ) ( >= lam18n3 0 ) ( >= lam18n5 0 ) ( >= lam18n6 0 ) ( > ( + ( * 1 lam18n0 ) ( * 1 lam18n1 ) ( * 2 lam18n3 ) ( * ( - 2 ) lam18n4 ) ( * Nl3CT1 lam18n5 ) ( * Nl3CT2 lam18n6 ) ( - 1 ( - RFN1_CT ) ) ) 0 ) ( = ( + ( * ( - 1 ) lam18n3 ) ( * 1 lam18n4 ) ( * Nl3arg11 lam18n5 ) ( * Nl3arg12 lam18n6 ) ( - ( - RFN1_arg1 ) ) ) 0 ) ( = ( + ( * ( - 1 ) lam18n0 ) ( * ( - 1 ) lam18n1 ) ( * ( - 1 ) lam18n3 ) ( * Nl3arg21 lam18n5 ) ( * Nl3arg22 lam18n6 ) ( - ( - RFN1_arg2 ) ) ) 0 ) ( = ( + ( * 1 lam18n1 ) ( * ( - 1 ) lam18n2 ) ) 0 ) ) ( and ( >= lam19n0 0 ) ( >= lam19n1 0 ) ( >= lam19n2 0 ) ( >= lam19n3 0 ) ( >= lam19n5 0 ) ( >= lam19n6 0 ) ( > ( + ( * 1 lam19n0 ) ( * 1 lam19n1 ) ( * 2 lam19n3 ) ( * ( - 2 ) lam19n4 ) ( * Nl3CT1 lam19n5 ) ( * Nl3CT2 lam19n6 ) ( - 1 ( + ( - ( + ( + RFN1_CT ( * RFN1_arg1 0 ) ) ( * RFN1_arg2 0 ) ) RFN1_CT ) 1 ) ) ) 0 ) ( = ( + ( * ( - 1 ) lam19n3 ) ( * 1 lam19n4 ) ( * Nl3arg11 lam19n5 ) ( * Nl3arg12 lam19n6 ) ( - ( - RFN1_arg1 ) ) ) 0 ) ( = ( + ( * ( - 1 ) lam19n0 ) ( * ( - 1 ) lam19n1 ) ( * ( - 1 ) lam19n3 ) ( * Nl3arg21 lam19n5 ) ( * Nl3arg22 lam19n6 ) ( - ( - RFN1_arg2 ) ) ) 0 ) ( = ( + ( * 1 lam19n1 ) ( * ( - 1 ) lam19n2 ) ( - ( + 0 ( * RFN1_arg2 1 ) ) ) ) 0 ) ) ) ( and ( and ( >= lam22n0 0 ) ( >= lam22n1 0 ) ( >= lam22n2 0 ) ( >= lam22n3 0 ) ( >= lam22n5 0 ) ( >= lam22n6 0 ) ( > ( + ( * 1 lam22n0 ) ( * 2 lam22n1 ) ( * ( - 2 ) lam22n2 ) ( * 3 lam22n3 ) ( * ( - 1 ) lam22n4 ) ( * Nl3CT1 lam22n5 ) ( * Nl3CT2 lam22n6 ) ( - 1 ( - RFN1_CT ) ) ) 0 ) ( = ( + ( * ( - 1 ) lam22n1 ) ( * 1 lam22n4 ) ( * Nl3arg11 lam22n5 ) ( * Nl3arg12 lam22n6 ) ( - ( - RFN1_arg1 ) ) ) 0 ) ( = ( + ( * ( - 1 ) lam22n0 ) ( * ( - 1 ) lam22n1 ) ( * ( - 1 ) lam22n2 ) ( * Nl3arg21 lam22n5 ) ( * Nl3arg22 lam22n6 ) ( - ( - RFN1_arg2 ) ) ) 0 ) ( = ( + ( * 1 lam22n2 ) ( * ( - 1 ) lam22n3 ) ) 0 ) ) ( and ( >= lam23n0 0 ) ( >= lam23n1 0 ) ( >= lam23n2 0 ) ( >= lam23n3 0 ) ( >= lam23n5 0 ) ( >= lam23n6 0 ) ( > ( + ( * 1 lam23n0 ) ( * 2 lam23n1 ) ( * ( - 2 ) lam23n2 ) ( * 3 lam23n3 ) ( * ( - 1 ) lam23n4 ) ( * Nl3CT1 lam23n5 ) ( * Nl3CT2 lam23n6 ) ( - 1 ( + ( - ( + ( + RFN1_CT ( * RFN1_arg1 2 ) ) ( * RFN1_arg2 0 ) ) RFN1_CT ) 1 ) ) ) 0 ) ( = ( + ( * ( - 1 ) lam23n1 ) ( * 1 lam23n4 ) ( * Nl3arg11 lam23n5 ) ( * Nl3arg12 lam23n6 ) ( - ( - RFN1_arg1 ) ) ) 0 ) ( = ( + ( * ( - 1 ) lam23n0 ) ( * ( - 1 ) lam23n1 ) ( * ( - 1 ) lam23n2 ) ( * Nl3arg21 lam23n5 ) ( * Nl3arg22 lam23n6 ) ( - ( - RFN1_arg2 ) ) ) 0 ) ( = ( + ( * 1 lam23n2 ) ( * ( - 1 ) lam23n3 ) ( - ( + 0 ( * RFN1_arg2 1 ) ) ) ) 0 ) ) ) ) ) ( or ( and ( >= lam13n0 0 ) ( >= lam13n1 0 ) ( >= lam13n2 0 ) ( >= lam13n3 0 ) ( >= lam13n5 0 ) ( >= lam13n6 0 ) ( > ( + ( * 1 lam13n0 ) ( * 1 lam13n1 ) ( * 2 lam13n3 ) ( * Nl3CT1 lam13n5 ) ( * Nl3CT2 lam13n6 ) ( - 1 ) ) 0 ) ( = ( + ( * ( - 1 ) lam13n3 ) ( * 1 lam13n4 ) ( * Nl3arg11 lam13n5 ) ( * Nl3arg12 lam13n6 ) ) 0 ) ( = ( + ( * ( - 1 ) lam13n0 ) ( * ( - 1 ) lam13n1 ) ( * ( - 1 ) lam13n3 ) ( * Nl3arg21 lam13n5 ) ( * Nl3arg22 lam13n6 ) ) 0 ) ( = ( + ( * 1 lam13n1 ) ( * ( - 1 ) lam13n2 ) ) 0 ) ) ( and ( >= lam17n0 0 ) ( >= lam17n1 0 ) ( >= lam17n2 0 ) ( >= lam17n3 0 ) ( >= lam17n5 0 ) ( >= lam17n6 0 ) ( > ( + ( * 1 lam17n0 ) ( * 1 lam17n1 ) ( * 2 lam17n3 ) ( * ( - 2 ) lam17n4 ) ( * Nl3CT1 lam17n5 ) ( * Nl3CT2 lam17n6 ) ( - 1 ) ) 0 ) ( = ( + ( * ( - 1 ) lam17n3 ) ( * 1 lam17n4 ) ( * Nl3arg11 lam17n5 ) ( * Nl3arg12 lam17n6 ) ) 0 ) ( = ( + ( * ( - 1 ) lam17n0 ) ( * ( - 1 ) lam17n1 ) ( * ( - 1 ) lam17n3 ) ( * Nl3arg21 lam17n5 ) ( * Nl3arg22 lam17n6 ) ) 0 ) ( = ( + ( * 1 lam17n1 ) ( * ( - 1 ) lam17n2 ) ) 0 ) ) ( and ( >= lam21n0 0 ) ( >= lam21n1 0 ) ( >= lam21n2 0 ) ( >= lam21n3 0 ) ( >= lam21n5 0 ) ( >= lam21n6 0 ) ( > ( + ( * 1 lam21n0 ) ( * 2 lam21n1 ) ( * ( - 2 ) lam21n2 ) ( * 3 lam21n3 ) ( * ( - 1 ) lam21n4 ) ( * Nl3CT1 lam21n5 ) ( * Nl3CT2 lam21n6 ) ( - 1 ) ) 0 ) ( = ( + ( * ( - 1 ) lam21n1 ) ( * 1 lam21n4 ) ( * Nl3arg11 lam21n5 ) ( * Nl3arg12 lam21n6 ) ) 0 ) ( = ( + ( * ( - 1 ) lam21n0 ) ( * ( - 1 ) lam21n1 ) ( * ( - 1 ) lam21n2 ) ( * Nl3arg21 lam21n5 ) ( * Nl3arg22 lam21n6 ) ) 0 ) ( = ( + ( * 1 lam21n2 ) ( * ( - 1 ) lam21n3 ) ) 0 ) ) ) ))
(check-sat)
(exit)
